6 6 138
5 5 1 3 1 3 2 6 3 2 3 2 22 22 42 42 86 86 118 118 138 
5 2 1 1 1 1 2 5 3 5 4 3 27 27 51 51 87 87 119 119 135 
5 4 1 5 2 4 2 4 3 3 3 11 33 33 59 59 101 101 119 119 137 
5 6 1 6 2 2 2 1 3 6 4 13 31 31 57 57 95 96 118 119 137 
12 5 1 3 1 3 1 6 1 6 1 1 1 1 1 2 2 5 3 5 3 2 3 2 3 0 2 2 5 5 7 7 10 10 13 13 15 15 18 27 29 53 59 59 65 93 95 95 99 
12 2 1 4 1 4 1 5 2 5 2 6 3 6 3 3 3 1 3 1 3 6 4 6 4 0 3 3 7 7 11 17 22 22 24 56 57 57 61 86 88 88 94 94 96 114 118 118 119 
